ilp_joint_2/output/osmosis_ilp.lp
Maximize
  4.2393026169668113e-04 Z_41_1_0 + 0.00549992427798163 Z_41_1_1
   + 0.4702917943087717 Z_41_1_2 + 0.0038418422858431 Z_41_1_3
   + 0.00180227301492192 Z_18_1_0 + 0.00692779402930155 Z_18_1_1
   + 0.4586721100636381 Z_18_1_2 + 0.00591261616761923 Z_18_1_3
Subject To
 constraint1_411: Z_41_1_0 + Z_41_1_1 + Z_41_1_2 + Z_41_1_3 <= 1
 constraint1_181: Z_18_1_0 + Z_18_1_1 + Z_18_1_2 + Z_18_1_3 <= 1
 constraint2_410: Z_41_1_0 <= 1
 constraint2_411: Z_41_1_1 <= 1
 constraint2_412: Z_41_1_2 <= 1
 constraint2_413: Z_41_1_3 <= 1
 constraint2_180: Z_18_1_0 <= 1
 constraint2_181: Z_18_1_1 <= 1
 constraint2_182: Z_18_1_2 <= 1
 constraint2_183: Z_18_1_3 <= 1
Bounds
Binaries
 Z_41_1_0 Z_41_1_1 Z_41_1_2 Z_41_1_3 Z_18_1_0 Z_18_1_1 Z_18_1_2 Z_18_1_3
End
