ilp_joint_2/output/osmosis_ilp.mps
NAME osmosis_srl_ilp
* Max problem is converted into Min one
ROWS
 N  OBJ
 L  constraint1_411
 L  constraint1_181
 L  constraint2_410
 L  constraint2_411
 L  constraint2_412
 L  constraint2_413
 L  constraint2_180
 L  constraint2_181
 L  constraint2_182
 L  constraint2_183
COLUMNS
    MARKER    'MARKER'                 'INTORG'
    Z_41_1_0  OBJ       -4.2393026169668113e-04
    Z_41_1_0  constraint1_411  1
    Z_41_1_0  constraint2_410  1
    Z_41_1_1  OBJ       -5.4999242779816271e-03
    Z_41_1_1  constraint1_411  1
    Z_41_1_1  constraint2_411  1
    Z_41_1_2  OBJ       -4.7029179430877172e-01
    Z_41_1_2  constraint1_411  1
    Z_41_1_2  constraint2_412  1
    Z_41_1_3  OBJ       -3.8418422858430968e-03
    Z_41_1_3  constraint1_411  1
    Z_41_1_3  constraint2_413  1
    Z_18_1_0  OBJ       -1.8022730149219179e-03
    Z_18_1_0  constraint1_181  1
    Z_18_1_0  constraint2_180  1
    Z_18_1_1  OBJ       -6.9277940293015483e-03
    Z_18_1_1  constraint1_181  1
    Z_18_1_1  constraint2_181  1
    Z_18_1_2  OBJ       -4.5867211006363812e-01
    Z_18_1_2  constraint1_181  1
    Z_18_1_2  constraint2_182  1
    Z_18_1_3  OBJ       -5.9126161676192326e-03
    Z_18_1_3  constraint1_181  1
    Z_18_1_3  constraint2_183  1
    MARKER    'MARKER'                 'INTEND'
RHS
    RHS1      constraint1_411  1
    RHS1      constraint1_181  1
    RHS1      constraint2_410  1
    RHS1      constraint2_411  1
    RHS1      constraint2_412  1
    RHS1      constraint2_413  1
    RHS1      constraint2_180  1
    RHS1      constraint2_181  1
    RHS1      constraint2_182  1
    RHS1      constraint2_183  1
BOUNDS
 UP BND1      Z_41_1_0  1
 UP BND1      Z_41_1_1  1
 UP BND1      Z_41_1_2  1
 UP BND1      Z_41_1_3  1
 UP BND1      Z_18_1_0  1
 UP BND1      Z_18_1_1  1
 UP BND1      Z_18_1_2  1
 UP BND1      Z_18_1_3  1
ENDATA
