ilp_joint_2/output/osmosis_ilp.sol
# Solution for model osmosis_srl_ilp
# Objective value = 9.2896390437240983e-01
Z_41_1_0 0
Z_41_1_1 0
Z_41_1_2 1
Z_41_1_3 0
Z_18_1_0 0
Z_18_1_1 0
Z_18_1_2 1
Z_18_1_3 0
